data;

set A := 165 353 429 427 443 539 467 699 390 299 511 151 701 241 150 686 180 32 862 16 502 69 314 405 873 191 908 939 327 787 790 993 639 309 736 276 612 139 600 861 902 545 788 614 573 316 513 225 27 652 231 641;
param T := 13000;

end;
